set N:= 1 2 3 4;
set M:= 1 2 3 4 5 6 7 8 9 10;
# Works for M := 1 2 3 4 5 6 7 8 9 10 but not for 1..10?

param nu := 1.0;

param X : 1 2 3 4 :=
1   0.223 0.217 0.448 0.493
2   0.474 0.475 0.034 0.954
3   0.154 0.261 0.190 0.361
4   0.167 0.084 0.590 0.961
5   0.778 0.497 0.792 0.945
6   0.505 0.828 0.897 0.737
7   0.842 0.960 0.461 0.289
8   0.031 0.763 0.927 0.064
9   0.886 0.218 0.978 0.076
10  0.601 0.243 0.663 0.190;

param y :=
1 -1.0
2 1.0
3 -1.0
4 -1.0
5 1.0
6 1.0
7 1.0
8 -1.0
9 1.0
10 -1.0
;

